%chk=ETOH-ACC-O2.chk
%nproc=1
%mem=1GB
# HF/6-31G* Opt=(Z-matrix,MaxCycles=100) Geom=PrintInputOrient

<qmtool> simtype="Geometry optimization" </qmtool>
ETOH-ACC-O2

0 1
C1 -0.028999999165534973 0.004000000189989805 -0.004999999888241291
H2 -0.4970000088214874 0.9330000281333923 0.33799999952316284
H3 -0.34700000286102295 -0.7990000247955322 0.6660000085830688
H4 -0.3919999897480011 -0.21199999749660492 -1.0119999647140503
C5 1.4850000143051147 0.1379999965429306 -0.017000000923871994
H6 1.8619999885559082 0.3440000116825104 0.9950000047683716
H7 1.9490000009536743 -0.7910000085830688 -0.35600000619888306
O8 1.9329999685287476 1.1330000162124634 -0.9399999976158142
H9 1.5740000009536743 1.9839999675750732 -0.6359999775886536
H1w       O8     rAH       C5  126.52       H9  180.00
  x      H1w     1.0       O8   90.00       C5    0.00
 Ow      H1w  0.9572        x   90.00       O8  180.00
H2w       Ow  0.9572      H1w  104.52        x     dih

rAH  2.0
dih  0.0
